50 1225
1 2 616
1 3 1032
1 4 908
1 5 734
1 6 1028
1 7 1023
1 8 1029
1 9 538
1 10 953
1 11 560
1 12 843
1 13 756
1 14 297
1 15 959
1 16 425
1 17 748
1 18 1022
1 19 599
1 20 953
1 21 947
1 22 101
1 23 974
1 24 529
1 25 646
1 26 785
1 27 574
1 28 554
1 29 903
1 30 770
1 31 512
1 32 655
1 33 869
1 34 855
1 35 715
1 36 51
1 37 788
1 38 1002
1 39 786
1 40 1158
1 41 1181
1 42 848
1 43 857
1 44 919
1 45 700
1 46 194
1 47 1077
1 48 1299
1 49 1327
1 50 587
2 3 423
2 4 345
2 5 575
2 6 484
2 7 656
2 8 726
2 9 336
2 10 703
2 11 517
2 12 428
2 13 204
2 14 323
2 15 562
2 16 287
2 17 400
2 18 406
2 19 66
2 20 754
2 21 851
2 22 519
2 23 672
2 24 298
2 25 552
2 26 280
2 27 315
2 28 75
2 29 297
2 30 770
2 31 214
2 32 219
2 33 694
2 34 239
2 35 132
2 36 665
2 37 305
2 38 388
2 39 323
2 40 623
2 41 597
2 42 261
2 43 330
2 44 502
2 45 152
2 46 448
2 47 476
2 48 745
2 49 765
2 50 537
3 4 187
3 5 713
3 6 226
3 7 566
3 8 675
3 9 605
3 10 710
3 11 760
3 12 421
3 13 395
3 14 745
3 15 485
3 16 642
3 17 492
3 18 128
3 19 432
3 20 786
3 21 931
3 22 939
3 23 644
3 24 583
3 25 745
3 26 452
3 27 563
3 28 478
3 29 129
3 30 937
3 31 547
3 32 523
3 33 767
3 34 189
3 35 318
3 36 1080
3 37 483
3 38 52
3 39 361
3 40 315
3 41 204
3 42 194
3 43 263
3 44 437
3 45 341
3 46 851
3 47 65
3 48 378
3 49 387
3 50 765
4 5 525
4 6 140
4 7 412
4 8 513
4 9 434
4 10 536
4 11 578
4 12 237
4 13 412
4 14 639
4 15 321
4 16 495
4 17 305
4 18 283
4 19 325
4 20 609
4 21 749
4 22 822
4 23 475
4 24 418
4 25 559
4 26 490
4 27 391
4 28 374
4 29 129
4 30 749
4 31 400
4 32 514
4 33 584
4 34 197
4 35 213
4 36 953
4 37 523
4 38 201
4 39 175
4 40 278
4 41 273
4 42 92
4 43 76
4 44 266
4 45 212
4 46 718
4 47 196
4 48 402
4 49 425
4 50 581
5 6 550
5 7 339
5 8 307
5 9 266
5 10 221
5 11 175
5 12 299
5 13 769
5 14 620
5 15 322
5 16 394
5 17 222
5 18 797
5 19 509
5 20 222
5 21 277
5 22 699
5 23 258
5 24 302
5 25 91
5 26 851
5 27 267
5 28 523
5 29 627
5 30 223
5 31 390
5 32 791
5 33 141
5 34 652
5 35 518
5 36 757
5 37 879
5 38 723
5 39 355
5 40 621
5 41 734
5 42 551
5 43 449
5 44 324
5 45 473
5 46 561
5 47 713
5 48 763
5 49 797
5 50 151
6 7 345
6 8 456
6 9 524
6 10 502
6 11 640
6 12 253
6 13 544
6 14 769
6 15 272
6 16 606
6 17 350
6 18 351
6 19 460
6 20 580
6 21 732
6 22 946
6 23 431
6 24 516
6 25 603
6 26 619
6 27 480
6 28 509
6 29 244
6 30 768
6 31 516
6 32 652
6 33 575
6 34 322
6 35 352
6 36 1071
6 37 651
6 38 266
6 39 250
6 40 139
6 41 184
6 42 231
6 43 170
6 44 237
6 45 345
6 46 835
6 47 191
6 48 272
6 49 299
6 50 637
7 8 111
7 9 489
7 10 181
7 11 499
7 12 228
7 13 796
7 14 838
7 15 96
7 16 619
7 17 288
7 18 685
7 19 603
7 20 258
7 21 414
7 22 968
7 23 104
7 24 507
7 25 425
7 26 879
7 27 459
7 28 640
7 29 541
7 30 506
7 31 562
7 32 869
7 33 285
7 34 603
7 35 542
7 36 1055
7 37 912
7 38 599
7 39 334
7 40 345
7 41 496
7 42 488
7 43 364
7 44 156
7 45 508
7 46 834
7 47 536
7 48 466
7 49 500
7 50 481
8 9 512
8 10 97
8 11 481
8 12 305
8 13 881
8 14 873
8 15 192
8 16 646
8 17 334
8 18 791
8 19 668
8 20 161
8 21 314
8 22 984
8 23 57
8 24 537
8 25 398
8 26 965
8 27 490
8 28 701
8 29 642
8 30 432
8 31 604
8 32 944
8 33 212
8 34 699
8 35 622
8 36 1057
8 37 997
8 38 706
8 39 412
8 40 454
8 41 608
8 42 583
8 43 458
8 44 248
8 45 584
8 46 847
8 47 647
8 48 568
8 49 602
8 50 458
9 10 453
9 11 182
9 12 308
9 13 539
9 14 363
9 15 421
9 16 134
9 17 210
9 18 652
9 19 271
9 20 479
9 21 542
9 22 478
9 23 454
9 24 38
9 25 221
9 26 616
9 27 44
9 28 272
9 29 489
9 30 437
9 31 128
9 32 538
9 33 403
9 34 483
9 35 324
9 36 573
9 37 640
9 38 596
9 39 273
9 40 641
9 41 699
9 42 413
9 43 366
9 44 382
9 45 283
9 46 345
9 47 629
9 48 788
9 49 818
9 50 201
10 11 397
10 12 306
10 13 873
10 14 816
10 15 230
10 16 588
10 17 303
10 18 819
10 19 641
10 20 79
10 21 235
10 22 913
10 23 76
10 24 482
10 25 312
10 26 958
10 27 437
10 28 669
10 29 660
10 30 335
10 31 558
10 32 923
10 33 114
10 34 708
10 35 611
10 36 977
10 37 988
10 38 735
10 39 407
10 40 523
10 41 668
10 42 594
10 43 472
10 44 272
10 45 570
10 46 776
10 47 690
10 48 647
10 49 681
10 50 372
11 12 392
11 13 722
11 14 479
11 15 461
11 16 270
11 17 290
11 18 821
11 19 453
11 20 393
11 21 407
11 22 531
11 23 429
11 24 219
11 25 86
11 26 798
11 27 212
11 28 451
11 29 653
11 30 267
11 31 305
11 32 714
11 33 309
11 34 656
11 35 502
11 36 582
11 37 821
11 38 758
11 39 403
11 40 735
11 41 823
11 42 575
11 43 503
11 44 444
11 45 459
11 46 395
11 47 775
11 48 883
11 49 916
11 50 29
12 13 575
12 14 627
12 15 136
12 16 421
12 17 104
12 18 519
12 19 374
12 20 376
12 21 512
12 22 775
12 23 256
12 24 314
12 25 350
12 26 660
12 27 268
12 28 413
12 29 356
12 30 520
12 31 350
12 32 642
12 33 346
12 34 402
12 35 317
12 36 880
12 37 691
12 38 439
12 39 107
12 40 344
12 41 437
12 42 287
12 43 167
12 44 80
12 45 280
12 46 648
12 47 416
12 48 492
12 49 524
12 50 387
13 14 461
13 15 700
13 16 487
13 17 574
13 18 318
13 19 268
13 20 932
13 21 1040
13 22 654
13 23 831
13 24 502
13 25 753
13 26 84
13 27 516
13 28 276
13 29 304
13 30 971
13 31 419
13 32 132
13 33 879
13 34 224
13 35 261
13 36 807
13 37 116
13 38 345
13 39 469
13 40 674
13 41 597
13 42 321
13 43 435
13 44 639
13 45 303
13 46 614
13 47 460
13 48 767
13 49 779
13 50 741
14 15 758
14 16 228
14 17 550
14 18 727
14 19 317
14 20 840
14 21 883
14 22 197
14 23 815
14 24 336
14 25 554
14 26 498
14 27 383
14 28 268
14 29 617
14 30 741
14 31 277
14 32 371
14 33 761
14 34 563
14 35 434
14 36 347
14 37 505
14 38 712
14 39 548
14 40 906
14 41 907
14 42 569
14 43 601
14 44 708
14 45 427
14 46 168
14 47 795
14 48 1040
14 49 1065
14 50 507
15 16 544
15 17 212
15 18 599
15 19 510
15 20 308
15 21 461
15 22 897
15 23 159
15 24 434
15 25 398
15 26 783
15 27 386
15 28 549
15 29 450
15 30 520
15 31 481
15 32 773
15 33 310
15 34 509
15 35 446
15 36 993
15 37 815
15 38 514
15 39 239
15 40 305
15 41 440
15 42 393
15 43 269
15 44 60
15 45 413
15 46 766
15 47 461
15 48 443
15 49 478
15 50 448
16 17 333
16 18 664
16 19 236
16 20 612
16 21 663
16 22 354
16 23 588
16 24 111
16 25 335
16 26 554
16 27 159
16 28 212
16 29 516
16 30 538
16 31 95
16 32 455
16 33 534
16 34 489
16 35 330
16 36 465
16 37 573
16 38 623
16 39 361
16 40 734
16 41 768
16 42 449
16 43 437
16 44 499
16 45 301
16 46 230
16 47 678
16 48 877
16 49 905
16 50 297
17 18 575
17 19 338
17 20 357
17 21 471
17 22 685
17 23 277
17 24 222
17 25 256
17 26 659
17 27 174
17 28 368
17 29 405
17 30 446
17 31 275
17 32 620
17 33 306
17 34 434
17 35 314
17 36 783
17 37 689
17 38 501
17 39 133
17 40 448
17 41 534
17 42 329
17 43 229
17 44 172
17 45 270
17 46 555
17 47 497
17 48 596
17 49 628
17 50 287
18 19 434
18 20 892
18 21 1032
18 22 925
18 23 756
18 24 625
18 25 818
18 26 358
18 27 613
18 28 473
18 29 170
18 30 1021
18 31 571
18 32 450
18 33 866
18 34 175
18 35 334
18 36 1072
18 37 385
18 38 85
18 39 442
18 40 442
18 41 317
18 42 248
18 43 353
18 44 547
18 45 370
18 46 853
18 47 185
18 48 493
18 49 497
18 50 830
19 20 691
19 21 785
19 22 507
19 23 613
19 24 234
19 25 486
19 26 346
19 27 249
19 28 49
19 29 303
19 30 704
19 31 154
19 32 283
19 33 629
19 34 260
19 35 116
19 36 647
19 37 371
19 38 404
19 39 273
19 40 599
19 41 590
19 42 252
19 43 297
19 44 451
19 45 115
19 46 421
19 47 479
19 48 728
19 49 751
19 50 472
20 21 156
20 22 921
20 23 155
20 24 512
20 25 306
20 26 1016
20 27 471
20 28 714
20 29 731
20 30 279
20 31 594
20 32 974
20 33 84
20 34 776
20 35 671
20 36 974
20 37 1046
20 38 810
20 39 471
20 40 601
20 41 747
20 42 663
20 43 543
20 44 348
20 45 628
20 46 784
20 47 768
20 48 724
20 49 758
20 50 366
21 22 932
21 23 311
21 24 578
21 25 329
21 26 1124
21 27 545
21 28 801
21 29 866
21 30 191
21 31 667
21 32 1068
21 33 166
21 34 904
21 35 784
21 36 960
21 37 1152
21 38 951
21 39 598
21 40 758
21 41 902
21 42 794
21 43 679
21 44 496
21 45 739
21 46 798
21 47 916
21 48 880
21 49 914
21 50 378
22 23 927
22 24 463
22 25 616
22 26 684
22 27 510
22 28 460
22 29 810
22 30 764
22 31 433
22 32 553
22 33 838
22 34 759
22 35 623
22 36 153
22 37 686
22 38 907
22 39 710
22 40 1079
22 41 1093
22 42 758
22 43 776
22 44 853
22 45 611
22 46 137
22 47 986
22 48 1218
22 49 1244
22 50 560
23 24 479
23 25 348
23 26 916
23 27 432
23 28 645
23 29 602
23 30 404
23 31 547
23 32 891
23 33 182
23 34 655
23 35 571
23 36 1002
23 37 947
23 38 671
23 39 362
23 40 446
23 41 593
23 42 540
23 43 415
23 44 208
23 45 532
23 46 790
23 47 620
23 48 570
23 49 605
23 50 408
24 25 260
24 26 578
24 27 47
24 28 233
24 29 464
24 30 476
24 31 90
24 32 500
24 33 438
24 34 453
24 35 293
24 36 567
24 37 602
24 38 571
24 39 266
24 40 637
24 41 687
24 42 390
24 43 353
24 44 390
24 45 254
24 46 335
24 47 611
24 48 783
24 49 813
24 50 239
25 26 833
25 27 237
25 28 492
25 29 648
25 30 217
25 31 350
25 32 760
25 33 222
25 34 662
25 35 516
25 36 668
25 37 858
25 38 749
25 39 384
25 40 687
25 41 788
25 42 570
25 43 483
25 44 390
25 45 471
25 46 480
25 47 753
25 48 832
25 49 866
25 50 60
26 27 595
26 28 347
26 29 375
26 30 1050
26 31 493
26 32 131
26 33 963
26 34 296
26 35 346
26 36 836
26 37 32
26 38 401
26 39 554
26 40 745
26 41 656
26 42 400
26 43 518
26 44 723
26 45 388
26 46 660
26 47 518
26 48 829
26 49 840
26 50 818
27 28 257
27 29 448
27 30 455
27 31 123
27 32 525
27 33 399
27 34 446
27 35 290
27 36 611
27 37 621
27 38 555
27 39 230
27 40 598
27 41 655
27 42 372
27 43 322
27 44 344
27 45 247
27 46 381
27 47 586
27 48 744
27 49 775
27 50 227
28 29 349
28 30 709
28 31 145
28 32 268
28 33 649
28 34 301
28 35 165
28 36 603
28 37 370
28 38 447
28 39 315
28 40 647
28 41 639
28 42 300
28 43 345
28 44 492
28 45 163
28 46 379
28 47 526
28 48 777
28 49 800
28 50 472
29 30 850
29 31 421
29 32 421
29 33 700
29 34 80
29 35 189
29 36 951
29 37 408
29 38 107
29 39 272
29 40 370
29 41 306
29 42 77
29 43 188
29 44 394
29 45 215
29 46 722
29 47 179
29 48 467
29 49 483
29 50 661
30 31 565
30 32 976
30 33 222
30 34 872
30 35 731
30 36 779
30 37 1076
30 38 947
30 39 579
30 40 825
30 41 949
30 42 773
30 43 673
30 44 534
30 45 685
30 46 635
30 47 936
30 48 962
30 49 997
30 50 241
31 32 410
31 33 522
31 34 397
31 35 237
31 36 555
31 37 515
31 38 528
31 39 277
31 40 646
31 41 674
31 42 353
31 43 346
31 44 430
31 45 206
31 46 319
31 47 582
31 48 787
31 49 815
31 50 327
32 33 913
32 34 342
32 35 327
32 36 706
32 37 134
32 38 474
32 39 535
32 40 787
32 41 722
32 42 422
32 43 523
32 44 713
32 45 361
32 46 535
32 47 586
32 48 888
32 49 903
32 50 737
33 34 738
33 35 620
33 36 889
33 37 992
33 38 785
33 39 431
33 40 615
33 41 750
33 42 628
33 43 512
33 44 337
33 45 576
33 46 700
33 47 755
33 48 746
33 49 781
33 50 281
34 35 160
34 36 904
34 37 329
34 38 149
34 39 306
34 40 450
34 41 381
34 42 115
34 43 240
34 44 450
34 45 199
34 46 681
34 47 248
34 48 546
34 49 561
34 50 668
35 36 762
35 37 377
35 38 293
35 39 210
35 40 491
35 41 473
35 42 135
35 43 200
35 44 385
35 45 45
35 46 533
35 47 362
35 48 615
35 49 637
35 50 516
36 37 839
36 38 1051
36 39 827
36 40 1199
36 41 1226
36 42 894
36 43 901
36 44 955
36 45 746
36 46 236
36 47 1125
36 48 1342
36 49 1370
36 50 608
37 38 431
37 39 585
37 40 777
37 41 687
37 42 433
37 43 550
37 44 755
37 45 418
37 46 669
37 47 548
37 48 860
37 49 870
37 50 842
38 39 368
38 40 364
38 41 255
38 42 183
38 43 274
38 44 463
38 45 322
38 46 825
38 47 117
38 48 430
38 49 439
38 50 765
39 40 372
39 41 426
39 42 197
39 43 99
39 44 179
39 45 173
39 46 591
39 47 371
39 48 517
39 49 546
39 50 406
40 41 164
40 42 368
40 43 305
40 44 297
40 45 483
40 46 963
40 47 259
40 48 147
40 49 180
40 50 729
41 42 338
41 43 334
41 44 415
41 45 482
41 46 991
41 47 138
41 48 175
41 49 183
41 50 821
42 43 124
42 44 334
42 45 149
42 46 663
42 47 230
42 48 484
42 49 504
42 50 583
43 44 210
43 45 182
43 46 665
43 47 271
43 48 442
43 49 469
43 50 506
44 45 352
44 46 725
44 47 419
44 48 442
44 49 475
44 50 435
45 46 513
45 47 380
45 48 614
45 49 638
45 50 472
46 47 893
46 48 1106
46 49 1134
46 50 423
47 48 313
47 49 321
47 50 778
48 49 34
48 50 875
49 50 909
